Instance Name : r204
Date : 2022-07-20
Solution
Route 1 : 28 76 3 79 33 51 9 81 78 34 35 71 65 66 20 30 32 90 63 10 70 1 50 77 68 80 29 24 25 54 12 26
Route 2 : 40 21 73 75 56 23 67 39 55 4 72 74 22 41 57 2 58
Route 3 : 69 31 88 62 19 11 64 49 36 47 48 7 82 8 46 45 17 84 5 60 83 18 52 27
Route 4 : 92 42 15 43 14 44 38 86 16 61 85 93 99 97 87 13 94 95 37 100 91 98 59 96 6 89
Route 5 : 53
